%datafile

D = 10;
T = 20;
MaxDT = 5;
MaxDL = 4;
MinDT = 5;

N1 = 6;
N2 = 5;
N3 = 4;

A = 2;

Afinidad = [| false,true,true,true,true,true,false,true,true,true,true,true,true,true,true,true,true,true,true,true
            | true,false,true,true,true,true,true,true,true,true,false,true,true,true,false,true,true,false,true,true
            | true,true,false,true,true,true,true,true,false,true,true,true,true,true,true,false,true,true,true,true
            | true,true,true,false,true,true,true,true,true,true,true,true,true,true,false,true,true,true,true,true
            | true,true,true,true,false,true,true,true,true,true,true,false,true,true,true,true,true,false,false,true
            | true,false,true,true,true,false,true,true,true,true,true,true,true,true,true,true,true,true,true,true
            | true,true,true,true,true,true,false,true,true,true,true,true,false,true,true,true,true,true,true,true
            | true,false,true,true,true,true,true,false,true,true,true,true,true,true,true,true,true,false,true,true
            | true,true,true,true,true,true,true,true,false,true,true,true,true,true,true,false,true,true,true,true
            | true,true,false,false,true,true,true,true,true,false,true,true,true,true,true,true,true,true,true,true
            | true,false,true,true,true,true,true,true,true,true,false,true,true,true,true,true,true,true,true,true
            | true,true,true,true,true,true,true,false,false,true,true,false,true,true,true,true,true,true,true,true
            | true,true,true,true,false,true,true,true,true,true,true,true,false,true,true,true,true,true,true,true
            | true,false,true,true,true,true,true,true,true,true,true,true,true,false,true,true,true,true,true,true
            | true,true,true,true,true,true,true,false,true,true,false,true,true,true,false,true,true,true,true,true
            | true,true,true,true,true,true,true,true,true,true,true,true,true,true,true,false,true,true,true,true
            | true,false,true,true,true,false,true,true,true,true,true,true,true,true,true,true,false,true,true,true
            | true,true,false,true,true,true,true,true,true,true,true,true,true,true,true,true,true,false,true,true
            | true,true,true,true,true,true,true,true,true,false,true,true,true,true,true,true,false,true,false,true
            | true,false,true,true,true,true,true,true,true,true,true,true,true,true,true,true,true,true,true,false
            |];

C = 2;
Categorias = [1, 1, 1, 1, 1, 1, 1, 1, 1, 1, 2, 2, 2, 2, 2, 2, 2, 2, 2, 2];
MinTC = [1, 2, 1, 2, 1, 3];

diasLibres = [| true, false, false, false, false, false, false, false, false, false
              | false, true, false, false, false, false, false, false, false, false
              | false, false, true, false, false, false, false, false, false, false
              | false, false, false, true, false, false, false, false, false, false
              | false, false, false, false, true, false, false, false, false, false
              | false, false, false, false, false, true, false, false, false, false
              | false, false, false, false, false, false, true, false, false, false
              | false, false, false, false, false, false, false, true, false, false
              | false, false, false, false, false, false, false, false, true, false
              | false, false, false, false, false, false, false, false, false, true
              | true, false, false, false, false, false, false, false, false, false
              | false, true, false, false, false, false, false, false, false, false
              | false, false, true, false, false, false, false, false, false, false
              | false, false, false, true, false, false, false, false, false, false
              | false, false, false, false, true, false, false, false, false, false
              | false, false, false, false, false, true, false, false, false, false
              | false, false, false, false, false, false, true, false, false, false
              | false, false, false, false, false, false, false, true, false, false
              | false, false, false, false, false, false, false, false, true, false
              | false, false, false, false, false, false, false, false, false, true
              |];
              
turnosNoDeseados = [| L1, T2, L1, T3, L1, L1, L1, L1, L1, L1
                    | L1, L1, T1, L1, L1, L1, L1, L1, L1, L1
                    | L1, L1, L1, T2, L1, L1, L1, T3, L1, L1
                    | L1, L1, L1, L1, T1, T3, L1, L1, L1, L1
                    | L1, L1, L1, L1, L1, T2, L1, L1, L1, L1
                    | L1, L1, L1, L1, L1, L1, T1, L1, L1, L1
                    | L1, L1, L1, L1, L1, L1, L1, T2, L1, L1
                    | L1, L1, L1, L1, L1, L1, L1, L1, T1, L1
                    | L1, L1, L1, L1, L1, L1, L1, L1, L1, T2
                    | T1, L1, L1, L1, L1, L1, L1, L1, L1, L1
                    | L1, T2, L1, L1, L1, L1, L1, T3, L1, L1
                    | L1, L1, T1, L1, L1, L1, L1, L1, L1, T3
                    | L1, L1, L1, T2, L1, L1, L1, L1, L1, L1
                    | L1, T3, L1, L1, T1, T3, L1, L1, L1, L1
                    | L1, L1, L1, L1, L1, T2, L1, L1, L1, L1
                    | L1, L1, L1, L1, L1, T1, T1, L1, L1, L1
                    | L1, T3, L1, L1, L1, T1, L1, T2, L1, L1
                    | L1, L1, T3, L1, L1, T1, L1, L1, T1, L1
                    | L1, L1, L1, L1, L1, T1, L1, L1, L1, T2
                    | T1, T3, L1, L1, L1, T1, L1, L1, L1, L1
                    |];